!DLPNO-CCSD(T) def2-TZVPP def2/J TightSCF DEFGRID3 TightOpt Freq
!SMD(water)
%Freq Temp 298, 373 End

* xyz -1 1
O  -0.59933892052035453446 1.14279246059786898648 0.00031268092473106833
C  -0.08789400780519000811 0.01548030427873802947 -0.00001364554130902260
O  -0.63578452640182092637 -1.09468799534520844219 -0.00039007632444866357
C  1.51066605885745253168 -0.00940533866095833240 0.00003497724336888081
C  2.01810581611188588624 0.69281558624662820112 -1.25284516499721787497
C  2.01812664926627505224 0.69289529396777682635 1.25285600549345854660
H  1.83481138494488216217 -1.05724496132452761010 0.00005113732913944139
H  1.72104154761542615937 0.14178328774885379238 -2.14466666410471029636
H  1.57583448056507147150 1.68682791395530773393 -1.30297974798041349409
H  3.10920084692039466745 0.79111999398161547692 -1.25092843427506950071
H  1.72120479876753518234 0.14184603358245642668 2.14471637721211161320
H  3.10920749257840212110 0.79133221149799781724 1.25084691730940944510
H  1.57571837910003553773 1.68684520947344984698 1.30300563771094712884
*

!PAL32
%MAXCORE 3000
